Route #1: 82 94 64 105 69 17 2 83 77 54
Route #2: 74 21 85 13 40 31 63 57
Route #3: 5 44 15 76 51 100 45 96
Route #4: 29 72 34 11 99 49 71
Route #5: 60 87 43 97 93 101 103 53
Route #6: 14 58 88 91 36 8 48 67
Route #7: 7 75 84 9 12 104 1
Route #8: 62 26 90 24 102 92 52
Route #9: 28 66 46 79 37 27 19 78
Route #10: 33 22
Route #11: 86 18 41 10 16 20 56
Route #12: 35 73 32 3 23 42 30 89 59
Route #13: 55 98 4 70 6 81 50 39
Route #14: 25 47 61 80 65 38 95 68
Cost 26362
